
        $ From http://www.csplib.org/Problems/prob009/data/helmut.pdf
        $ Problem number 88
        $ Sequence length : 25
        language ESSENCE' 1.0
        letting sizemaster be 322
        letting sizes be sequence(3,4,8,10,15,16,18,19,20,22,24,28,35,38,44,53,59,64,68,76,80,85,93,144,178)
        